\Problem name: compact

Minimize
OBJROW: C
Subject To
ord(0,1):  x(0,1) - x(0,2) >= 7
ord(0,2):  x(0,0) - x(0,1) >= 9
ord(1,1):  x(1,1) - x(1,2) >= 5
ord(1,2):  x(1,0) - x(1,1) >= 2
ord(2,1):  x(2,1) - x(2,2) >= 7
ord(2,2):  x(2,0) - x(2,1) >= 5
triangle2(0,1,0):  y(0,1,0) + y(1,0,0) = 1
triangle2(0,1,1):  y(0,1,1) + y(1,0,1) = 1
triangle2(0,1,2):  y(0,1,2) + y(1,0,2) = 1
triangle2(0,2,0):  y(0,2,0) + y(2,0,0) = 1
triangle2(0,2,1):  y(0,2,1) + y(2,0,1) = 1
triangle2(0,2,2):  y(0,2,2) + y(2,0,2) = 1
triangle2(1,2,0):  y(1,2,0) + y(2,1,0) = 1
triangle2(1,2,1):  y(1,2,1) + y(2,1,1) = 1
triangle2(1,2,2):  y(1,2,2) + y(2,1,2) = 1
MCLinV(0,1,0):  x(0,0) - v(0,1,0) - x(1,0) = 1
MCLinV(1,0,0):  - x(0,0) - v(1,0,0) + x(1,0) = 7
MCLin1(0,1,0):  u(0,1,0) >= -0
MCLin2(0,1,0):  -30 y(1,0,0) - u(0,1,0) <= -0
MCLin3(0,1,0):  31 y(1,0,0) + v(0,1,0) - u(0,1,0) <= 31
MCLin4(0,1,0):  31 y(1,0,0) - u(0,1,0) >= -0
MCLin5(0,1,0):  -30 y(1,0,0) + v(0,1,0) - u(0,1,0) >= -30
MCLin6(1,0,0):  u(1,0,0) >= -0
MCLin7(1,0,0):  -39 y(0,1,0) - u(1,0,0) <= -0
MCLin8(1,0,0):  22 y(0,1,0) + v(1,0,0) - u(1,0,0) <= 22
MCLin9(1,0,0):  22 y(0,1,0) - u(1,0,0) >= -0
MCLin10(1,0,0):  -39 y(0,1,0) + v(1,0,0) - u(1,0,0) >= -39
MCLinV(0,1,1):  x(0,1) - v(0,1,1) - x(1,1) = 2
MCLinV(1,0,1):  - x(0,1) - v(1,0,1) + x(1,1) = 9
MCLin1(0,1,1):  u(0,1,1) >= -0
MCLin2(0,1,1):  -38 y(1,0,1) - u(0,1,1) <= -0
MCLin3(0,1,1):  23 y(1,0,1) + v(0,1,1) - u(0,1,1) <= 23
MCLin4(0,1,1):  23 y(1,0,1) - u(0,1,1) >= -0
MCLin5(0,1,1):  -38 y(1,0,1) + v(0,1,1) - u(0,1,1) >= -38
MCLin6(1,0,1):  u(1,0,1) >= -0
MCLin7(1,0,1):  -34 y(0,1,1) - u(1,0,1) <= -0
MCLin8(1,0,1):  27 y(0,1,1) + v(1,0,1) - u(1,0,1) <= 27
MCLin9(1,0,1):  27 y(0,1,1) - u(1,0,1) >= -0
MCLin10(1,0,1):  -34 y(0,1,1) + v(1,0,1) - u(1,0,1) >= -34
MCLinV(0,1,2):  x(0,2) - v(0,1,2) - x(1,2) = 5
MCLinV(1,0,2):  - x(0,2) - v(1,0,2) + x(1,2) = 7
MCLin1(0,1,2):  u(0,1,2) >= -0
MCLin2(0,1,2):  -43 y(1,0,2) - u(0,1,2) <= -0
MCLin3(0,1,2):  18 y(1,0,2) + v(0,1,2) - u(0,1,2) <= 18
MCLin4(0,1,2):  18 y(1,0,2) - u(0,1,2) >= -0
MCLin5(0,1,2):  -43 y(1,0,2) + v(0,1,2) - u(0,1,2) >= -43
MCLin6(1,0,2):  u(1,0,2) >= -0
MCLin7(1,0,2):  -30 y(0,1,2) - u(1,0,2) <= -0
MCLin8(1,0,2):  31 y(0,1,2) + v(1,0,2) - u(1,0,2) <= 31
MCLin9(1,0,2):  31 y(0,1,2) - u(1,0,2) >= -0
MCLin10(1,0,2):  -30 y(0,1,2) + v(1,0,2) - u(1,0,2) >= -30
MCLinV(0,2,0):  x(0,0) - v(0,2,0) - x(2,0) = 3
MCLinV(2,0,0):  - x(0,0) - v(2,0,0) + x(2,0) = 7
MCLin1(0,2,0):  u(0,2,0) >= -0
MCLin2(0,2,0):  -30 y(2,0,0) - u(0,2,0) <= -0
MCLin3(0,2,0):  24 y(2,0,0) + v(0,2,0) - u(0,2,0) <= 24
MCLin4(0,2,0):  24 y(2,0,0) - u(0,2,0) >= -0
MCLin5(0,2,0):  -30 y(2,0,0) + v(0,2,0) - u(0,2,0) >= -30
MCLin6(2,0,0):  u(2,0,0) >= -0
MCLin7(2,0,0):  -34 y(0,2,0) - u(2,0,0) <= -0
MCLin8(2,0,0):  20 y(0,2,0) + v(2,0,0) - u(2,0,0) <= 20
MCLin9(2,0,0):  20 y(0,2,0) - u(2,0,0) >= -0
MCLin10(2,0,0):  -34 y(0,2,0) + v(2,0,0) - u(2,0,0) >= -34
MCLinV(0,2,1):  x(0,1) - v(0,2,1) - x(2,1) = 5
MCLinV(2,0,1):  - x(0,1) - v(2,0,1) + x(2,1) = 9
MCLin1(0,2,1):  u(0,2,1) >= -0
MCLin2(0,2,1):  -36 y(2,0,1) - u(0,2,1) <= -0
MCLin3(0,2,1):  18 y(2,0,1) + v(0,2,1) - u(0,2,1) <= 18
MCLin4(0,2,1):  18 y(2,0,1) - u(0,2,1) >= -0
MCLin5(0,2,1):  -36 y(2,0,1) + v(0,2,1) - u(0,2,1) >= -36
MCLin6(2,0,1):  u(2,0,1) >= -0
MCLin7(2,0,1):  -32 y(0,2,1) - u(2,0,1) <= -0
MCLin8(2,0,1):  22 y(0,2,1) + v(2,0,1) - u(2,0,1) <= 22
MCLin9(2,0,1):  22 y(0,2,1) - u(2,0,1) >= -0
MCLin10(2,0,1):  -32 y(0,2,1) + v(2,0,1) - u(2,0,1) >= -32
MCLinV(0,2,2):  x(0,2) - v(0,2,2) - x(2,2) = 7
MCLinV(2,0,2):  - x(0,2) - v(2,0,2) + x(2,2) = 7
MCLin1(0,2,2):  u(0,2,2) >= -0
MCLin2(0,2,2):  -38 y(2,0,2) - u(0,2,2) <= -0
MCLin3(0,2,2):  16 y(2,0,2) + v(0,2,2) - u(0,2,2) <= 16
MCLin4(0,2,2):  16 y(2,0,2) - u(0,2,2) >= -0
MCLin5(0,2,2):  -38 y(2,0,2) + v(0,2,2) - u(0,2,2) >= -38
MCLin6(2,0,2):  u(2,0,2) >= -0
MCLin7(2,0,2):  -30 y(0,2,2) - u(2,0,2) <= -0
MCLin8(2,0,2):  24 y(0,2,2) + v(2,0,2) - u(2,0,2) <= 24
MCLin9(2,0,2):  24 y(0,2,2) - u(2,0,2) >= -0
MCLin10(2,0,2):  -30 y(0,2,2) + v(2,0,2) - u(2,0,2) >= -30
MCLinV(1,2,0):  x(1,0) - v(1,2,0) - x(2,0) = 3
MCLinV(2,1,0):  - x(1,0) - v(2,1,0) + x(2,0) = 1
MCLin1(1,2,0):  u(1,2,0) >= -0
MCLin2(1,2,0):  -39 y(2,1,0) - u(1,2,0) <= -0
MCLin3(1,2,0):  30 y(2,1,0) + v(1,2,0) - u(1,2,0) <= 30
MCLin4(1,2,0):  30 y(2,1,0) - u(1,2,0) >= -0
MCLin5(1,2,0):  -39 y(2,1,0) + v(1,2,0) - u(1,2,0) >= -39
MCLin6(2,1,0):  u(2,1,0) >= -0
MCLin7(2,1,0):  -34 y(1,2,0) - u(2,1,0) <= -0
MCLin8(2,1,0):  35 y(1,2,0) + v(2,1,0) - u(2,1,0) <= 35
MCLin9(2,1,0):  35 y(1,2,0) - u(2,1,0) >= -0
MCLin10(2,1,0):  -34 y(1,2,0) + v(2,1,0) - u(2,1,0) >= -34
MCLinV(1,2,1):  x(1,1) - v(1,2,1) - x(2,1) = 5
MCLinV(2,1,1):  - x(1,1) - v(2,1,1) + x(2,1) = 2
MCLin1(1,2,1):  u(1,2,1) >= -0
MCLin2(1,2,1):  -38 y(2,1,1) - u(1,2,1) <= -0
MCLin3(1,2,1):  31 y(2,1,1) + v(1,2,1) - u(1,2,1) <= 31
MCLin4(1,2,1):  31 y(2,1,1) - u(1,2,1) >= -0
MCLin5(1,2,1):  -38 y(2,1,1) + v(1,2,1) - u(1,2,1) >= -38
MCLin6(2,1,1):  u(2,1,1) >= -0
MCLin7(2,1,1):  -38 y(1,2,1) - u(2,1,1) <= -0
MCLin8(2,1,1):  31 y(1,2,1) + v(2,1,1) - u(2,1,1) <= 31
MCLin9(2,1,1):  31 y(1,2,1) - u(2,1,1) >= -0
MCLin10(2,1,1):  -38 y(1,2,1) + v(2,1,1) - u(2,1,1) >= -38
MCLinV(1,2,2):  x(1,2) - v(1,2,2) - x(2,2) = 7
MCLinV(2,1,2):  - x(1,2) - v(2,1,2) + x(2,2) = 5
MCLin1(1,2,2):  u(1,2,2) >= -0
MCLin2(1,2,2):  -38 y(2,1,2) - u(1,2,2) <= -0
MCLin3(1,2,2):  31 y(2,1,2) + v(1,2,2) - u(1,2,2) <= 31
MCLin4(1,2,2):  31 y(2,1,2) - u(1,2,2) >= -0
MCLin5(1,2,2):  -38 y(2,1,2) + v(1,2,2) - u(1,2,2) >= -38
MCLin6(2,1,2):  u(2,1,2) >= -0
MCLin7(2,1,2):  -43 y(1,2,2) - u(2,1,2) <= -0
MCLin8(2,1,2):  26 y(1,2,2) + v(2,1,2) - u(2,1,2) <= 26
MCLin9(2,1,2):  26 y(1,2,2) - u(2,1,2) >= -0
MCLin10(2,1,2):  -43 y(1,2,2) + v(2,1,2) - u(2,1,2) >= -43
makespan(0):  C - x(0,0) >= 7
makespan(1):  C - x(1,0) >= 1
makespan(2):  C - x(2,0) >= 3
cut_clique_0(012,1):  0.06294 x(0,1) + 0.03497 x(2,1) >= 1
cut_clique_0(012,2):  0.14286 x(0,2) + 0.14286 x(2,2) >= 1
cut_clique_1(012,2):  0.05882 x(0,2) + 0.04202 x(1,2) + 0.05882 x(2,2) >= 1
cut_clique_0:  0.04339 x(0,1) + 0.00964 x(1,1) + 0.02411 x(2,1) + 0.01543 x(0,2) + 0.01543 x(2,2) >= 1
cut_clique_1:  0.04865 x(0,1) + 0.01081 x(1,1) + 0.02703 x(2,1) + 0.03459 x(0,2) >= 1
Bounds
 0 <= C <= 46
 16 <= x(0,0) <= 39
 0 <= y(0,1,0) <= 1
 0 <= y(1,0,0) <= 1
 -30 <= v(0,1,0) <= 31
 -39 <= v(1,0,0) <= 22
 -460 <= u(0,1,0)
 -460 <= u(1,0,0)
 0 <= y(0,2,0) <= 1
 0 <= y(2,0,0) <= 1
 -30 <= v(0,2,0) <= 24
 -34 <= v(2,0,0) <= 20
 -460 <= u(0,2,0)
 -460 <= u(2,0,0)
 7 <= x(1,0) <= 45
 0 <= y(1,2,0) <= 1
 0 <= y(2,1,0) <= 1
 -39 <= v(1,2,0) <= 30
 -34 <= v(2,1,0) <= 35
 -460 <= u(1,2,0)
 -460 <= u(2,1,0)
 12 <= x(2,0) <= 43
 7 <= x(0,1) <= 30
 0 <= y(0,1,1) <= 1
 0 <= y(1,0,1) <= 1
 -38 <= v(0,1,1) <= 23
 -34 <= v(1,0,1) <= 27
 -460 <= u(0,1,1)
 -460 <= u(1,0,1)
 0 <= y(0,2,1) <= 1
 0 <= y(2,0,1) <= 1
 -36 <= v(0,2,1) <= 18
 -32 <= v(2,0,1) <= 22
 -460 <= u(0,2,1)
 -460 <= u(2,0,1)
 5 <= x(1,1) <= 43
 0 <= y(1,2,1) <= 1
 0 <= y(2,1,1) <= 1
 -38 <= v(1,2,1) <= 31
 -38 <= v(2,1,1) <= 31
 -460 <= u(1,2,1)
 -460 <= u(2,1,1)
 7 <= x(2,1) <= 38
 0 <= x(0,2) <= 23
 0 <= y(0,1,2) <= 1
 0 <= y(1,0,2) <= 1
 -43 <= v(0,1,2) <= 18
 -30 <= v(1,0,2) <= 31
 -460 <= u(0,1,2)
 -460 <= u(1,0,2)
 0 <= y(0,2,2) <= 1
 0 <= y(2,0,2) <= 1
 -38 <= v(0,2,2) <= 16
 -30 <= v(2,0,2) <= 24
 -460 <= u(0,2,2)
 -460 <= u(2,0,2)
 0 <= x(1,2) <= 38
 0 <= y(1,2,2) <= 1
 0 <= y(2,1,2) <= 1
 -38 <= v(1,2,2) <= 31
 -43 <= v(2,1,2) <= 26
 -460 <= u(1,2,2)
 -460 <= u(2,1,2)
 0 <= x(2,2) <= 31
Integers
C x(0,0) y(0,1,0) y(1,0,0) v(0,1,0) v(1,0,0) u(0,1,0) u(1,0,0) y(0,2,0) y(2,0,0) 
v(0,2,0) v(2,0,0) u(0,2,0) u(2,0,0) x(1,0) y(1,2,0) y(2,1,0) v(1,2,0) v(2,1,0) u(1,2,0) 
u(2,1,0) x(2,0) x(0,1) y(0,1,1) y(1,0,1) v(0,1,1) v(1,0,1) u(0,1,1) u(1,0,1) y(0,2,1) 
y(2,0,1) v(0,2,1) v(2,0,1) u(0,2,1) u(2,0,1) x(1,1) y(1,2,1) y(2,1,1) v(1,2,1) v(2,1,1) 
u(1,2,1) u(2,1,1) x(2,1) x(0,2) y(0,1,2) y(1,0,2) v(0,1,2) v(1,0,2) u(0,1,2) u(1,0,2) 
y(0,2,2) y(2,0,2) v(0,2,2) v(2,0,2) u(0,2,2) u(2,0,2) x(1,2) y(1,2,2) y(2,1,2) v(1,2,2) 
v(2,1,2) u(1,2,2) u(2,1,2) x(2,2) 
End
